letting n =  10
letting blocks =  [[1, 2], [1, 7], [1, 8], [2, 1], [2, 5], [3, 1], [3, 2], [3, 9], [4, 2], [4, 6], [5, 2], [6, 6], [7, 4], [7, 7], [7, 9], [8, 1], [8, 5], [8, 7], [8, 9], [9, 1], [9, 3], [10, 6]]
